100 78807

 500 466
747 58
563 187
84 561
186 867
220 883
258 70
566 420
504 584
204 148
68 766
172 745
985 904
469 9
868 217
849 828
512 671
707 895
193 58
689 597
273 570
833 36
84 514
774 610
100 192
882 274
305 641
655 469
488 859
367 343
646 267
948 985
42 912
919 29
610 771
808 111
384 28
472 274
869 270
415 820
535 711
21 982
159 712
642 419
717 699
583 1000
144 711
446 762
356 939
496 114
871 705
776 851
84 955
891 211
472 504
744 681
141 248
671 601
237 258
439 334
17 442
152 530
93 450
240 494
101 299
692 159
30 48
618 196
141 582
946 787
934 170
226 109
615 750
29 306
932 952
523 715
44 327
343 290
77 524
393 80
670 118
470 176
384 775
120 514
245 11
101 674
808 424
136 511
596 215
343 552
226 980
640 74
458 284
401 243
593 249
492 379
304 819
560 913
670 203
27 543
